\ENCODING=ISO-8859-1
\Problem name: ilog.cplex

Minimize
 obj: obj#42
Subject To
 c1:    = 1
 c1:    = 1
 c3:    = 1
 c5:    = 1
 c7:    = 1
 c9:    = 1
 c11:   = 1
 c13:   = 1
 c15:   = 1
 c17:   = 1
 c19:   = 1
 c21:   = 1
 c23:   = 1
 c24:   = 1
 c25:   = 1
 c26:   = 1
 c27:   = 1
 c28:   = 1
 c29:   = 1
 c30:   = 1
 c31:   = 1
 c32:   = 1
 c33:   = 1
 c34:   = 1
 c35:   = 1
 c36:   = 1
 c37:   = 1
 c38:   = 1
 c39:   = 1
 c40:   = 1
 c41:   = 1
 c42:   = 1
 c43:   = 1
 c44:   = 1
 c45:   = 1
 c46:   = 1
 c47:   = 1
 c48:   = 1
 c49:   = 1
 c50:   = 1
 c51:  c(1;0)#0 >= 0
 c52:  c(2;0)#1 >= 0
 c54:  c(3;0)#2 >= 0
 c56:  c(4;0)#3 >= 0
 c58:  c(5;0)#4 >= 0
 c60:  c(6;0)#5 >= 0
 c62:  c(7;0)#6 >= 0
 c64:  c(8;0)#7 >= 0
 c66:  c(9;0)#8 >= 0
 c68:  c(10;0)#9 >= 0
 c70:  c(11;0)#10 >= 0
 c72:  c(12;0)#11 >= 0
 c74:  c(13;0)#12 >= 0
 c75:  c(14;0)#13 >= 0
 c76:  c(15;0)#14 >= 0
 c77:  c(16;0)#15 >= 0
 c78:  c(17;0)#16 >= 0
 c79:  c(18;0)#17 >= 0
 c80:  c(19;0)#18 >= 0
 c81:  c(20;0)#19 >= 0
 c82:  c(1;1)#20 >= 0
 c83:  c(2;1)#21 >= 0
 c84:  c(3;1)#22 >= 0
 c85:  c(4;1)#23 >= 0
 c86:  c(5;1)#24 >= 0
 c87:  c(6;1)#25 >= 0
 c88:  c(7;1)#26 >= 0
 c89:  c(8;1)#27 >= 0
 c90:  c(9;1)#28 >= 0
 c91:  c(10;1)#29 >= 0
 c92:  c(11;1)#30 >= 0
 c93:  c(12;1)#31 >= 0
 c94:  c(13;1)#32 >= 0
 c95:  c(14;1)#33 >= 0
 c96:  c(15;1)#34 >= 0
 c97:  c(16;1)#35 >= 0
 c98:  c(17;1)#36 >= 0
 c99:  c(18;1)#37 >= 0
 c100: c(19;1)#38 >= 0
 c101: c(20;1)#39 >= 0
 c102: - c(1;0)#0 + c(1;1)#20 >= 0
 c104: - c(2;0)#1 + c(2;1)#21 >= 0
 c106: - c(3;0)#2 + c(3;1)#22 >= 0
 c108: - c(4;0)#3 + c(4;1)#23 >= 0
 c110: - c(5;0)#4 + c(5;1)#24 >= 0
 c112: - c(6;0)#5 + c(6;1)#25 >= 0
 c114: - c(7;0)#6 + c(7;1)#26 >= 0
 c116: - c(8;0)#7 + c(8;1)#27 >= 0
 c118: - c(9;0)#8 + c(9;1)#28 >= 0
 c120: - c(10;0)#9 + c(10;1)#29 >= 0
 c122: - c(11;0)#10 + c(11;1)#30 >= 0
 c124: - c(12;0)#11 + c(12;1)#31 >= 0
 c126: - c(13;0)#12 + c(13;1)#32 >= 0
 c128: - c(14;0)#13 + c(14;1)#33 >= 0
 c130: - c(15;0)#14 + c(15;1)#34 >= 0
 c132: - c(16;0)#15 + c(16;1)#35 >= 0
 c134: - c(17;0)#16 + c(17;1)#36 >= 0
 c136: - c(18;0)#17 + c(18;1)#37 >= 0
 c138: - c(19;0)#18 + c(19;1)#38 >= 0
 c140: - c(20;0)#19 + c(20;1)#39 >= 0
 c142: W#40 - c(0;1)#41 >= 0
 c144: - c(1;1)#20 + W#40 >= 0
 c146: - c(2;1)#21 + W#40 >= 0
 c148: - c(3;1)#22 + W#40 >= 0
 c150: - c(4;1)#23 + W#40 >= 0
 c152: - c(5;1)#24 + W#40 >= 0
 c154: - c(6;1)#25 + W#40 >= 0
 c156: - c(7;1)#26 + W#40 >= 0
 c158: - c(8;1)#27 + W#40 >= 0
 c160: - c(9;1)#28 + W#40 >= 0
 c162: - c(10;1)#29 + W#40 >= 0
 c164: - c(11;1)#30 + W#40 >= 0
 c166: - c(12;1)#31 + W#40 >= 0
 c168: - c(13;1)#32 + W#40 >= 0
 c170: - c(14;1)#33 + W#40 >= 0
 c172: - c(15;1)#34 + W#40 >= 0
 c174: - c(16;1)#35 + W#40 >= 0
 c176: - c(17;1)#36 + W#40 >= 0
 c178: - c(18;1)#37 + W#40 >= 0
 c180: - c(19;1)#38 + W#40 >= 0
 c182: - c(20;1)#39 + W#40 >= 0
 c184: W#40 - obj#42  = 0
Bounds
 0 <= c(1;0)#0 <= 500
 0 <= c(2;0)#1 <= 500
 0 <= c(3;0)#2 <= 500
 0 <= c(4;0)#3 <= 500
 0 <= c(5;0)#4 <= 500
 0 <= c(6;0)#5 <= 500
 0 <= c(7;0)#6 <= 500
 0 <= c(8;0)#7 <= 500
 0 <= c(9;0)#8 <= 500
 0 <= c(10;0)#9 <= 500
 0 <= c(11;0)#10 <= 500
 0 <= c(12;0)#11 <= 500
 0 <= c(13;0)#12 <= 500
 0 <= c(14;0)#13 <= 500
 0 <= c(15;0)#14 <= 500
 0 <= c(16;0)#15 <= 500
 0 <= c(17;0)#16 <= 500
 0 <= c(18;0)#17 <= 500
 0 <= c(19;0)#18 <= 500
 0 <= c(20;0)#19 <= 500
 0 <= c(1;1)#20 <= 500
 0 <= c(2;1)#21 <= 500
 0 <= c(3;1)#22 <= 500
 0 <= c(4;1)#23 <= 500
 0 <= c(5;1)#24 <= 500
 0 <= c(6;1)#25 <= 500
 0 <= c(7;1)#26 <= 500
 0 <= c(8;1)#27 <= 500
 0 <= c(9;1)#28 <= 500
 0 <= c(10;1)#29 <= 500
 0 <= c(11;1)#30 <= 500
 0 <= c(12;1)#31 <= 500
 0 <= c(13;1)#32 <= 500
 0 <= c(14;1)#33 <= 500
 0 <= c(15;1)#34 <= 500
 0 <= c(16;1)#35 <= 500
 0 <= c(17;1)#36 <= 500
 0 <= c(18;1)#37 <= 500
 0 <= c(19;1)#38 <= 500
 0 <= c(20;1)#39 <= 500
 0 <= W#40 <= 1000
 0 <= c(0;1)#41 <= 500
End
